36
100
78	2
75	1
73	1
72	1
67	1
65	1
61	2
60	1
59	3
58	1
57	1
54	2
53	1
52	2
51	1
49	1
47	2
46	1
45	1
44	2
42	1
41	1
40	1
39	2
36	3
35	2
28	2
26	1
24	1
21	1
20	1
18	1
17	1
16	1
14	2
11	1
